
&FORCE_EVAL
    METHOD  FIST
    
    &MM
        &FORCEFIELD
            &SPLINE
                RCUT_NB         8
            &END SPLINE

                        PARMTYPE CHM
                	PARM_FILE_NAME ../topologies/PENCEN01_HOLE_beta_0.910.prm
                      
        &END FORCEFIELD
        
		&POISSON
       			&EWALD
         			EWALD_TYPE   NONE
       			&END EWALD
     		&END POISSON

        &PRINT
            &ITER_INFO  SILENT
            &END ITER_INFO
            &PROGRAM_RUN_INFO LOW
                &EACH
                     MD 1
                &END EACH
            &END PROGRAM_RUN_INFO
        &END PRINT
    &END MM

    &SUBSYS
        # Initial Velocities
        &VELOCITY
            @INCLUDE VELOC.init
        &END VELOCITY
        
        @INCLUDE TOPOLOGY.include
        
    &END SUBSYS
    &PRINT
            &PROGRAM_RUN_INFO OFF
            &END PROGRAM_RUN_INFO
    &END PRINT

&END FORCE_EVAL
            
